PROBLEM NAME: small_4_BoundedStronglyCorrelated_n14_m39_c5
KNAPSACK DATA TYPE:
DIMENSION: 14
NUMBER OF ITEMS: 39
CAPACITY OF KNAPSACK: 7802
MIN SPEED: 0.1
MAX SPEED: 1.0
RENTING RATIO: 1.0
EDGE_WEIGHT_TYPE: CEIL_2D
NODE_COORD_SECTION	(INDEX, X, Y): 
1	14	37
2	890	954
3	561	401
4	92	290
5	103	15
6	936	596
7	102	334
8	481	749
9	475	999
10	748	535
11	639	87
12	463	63
13	9	667
14	284	755
ITEMS SECTION	(INDEX, PROFIT, WEIGHT, ASSIGNED NODE NUMBER): 
1	170	70	2
2	853	753	2
3	484	384	2
4	272	172	3
5	843	743	3
6	333	233	3
7	615	515	4
8	644	544	4
9	652	552	4
10	498	398	5
11	1012	912	5
12	992	892	5
13	237	137	6
14	1058	958	6
15	131	31	6
16	327	227	7
17	525	425	7
18	1002	902	7
19	540	440	8
20	298	198	8
21	1015	915	8
22	1002	902	9
23	390	290	9
24	499	399	9
25	106	6	10
26	682	582	10
27	197	97	10
28	684	584	11
29	252	152	11
30	376	276	11
31	1064	964	12
32	590	490	12
33	437	337	12
34	155	55	13
35	477	377	13
36	361	261	13
37	698	598	14
38	217	117	14
39	378	278	14
